c --- [ banner ] -------------------------------------------------------------
c 
c CaDiCaL SAT Solver
c Copyright (c) 2016-2023 A. Biere, M. Fleury, N. Froleyks, K. Fazekas, F. Pollitt
c 
c Version 1.9.5
c g++ (Ubuntu 11.4.0-1ubuntu1~22.04) 11.4.0 -Wall -Wextra -O3 -DNDEBUG -static
c Thu Mar 7 06:16:21 CET 2024 Linux pc101447 6.5.0-17-generic x86_64
c 
c --- [ limit ] --------------------------------------------------------------
c 
c setting time limit to 3600 seconds real time (due to '-t 3600')
c 
c --- [ parsing input ] ------------------------------------------------------
c 
c reading DIMACS file from '/home/oliveras/SAT-comp-2023//4989239fbeb6eb40fc0b664d9ba92636-asconhashv12_opt64_H7_M2-K1zfAs8_m0_3_U5.c.cnf'
c opening file to read '/home/oliveras/SAT-comp-2023//4989239fbeb6eb40fc0b664d9ba92636-asconhashv12_opt64_H7_M2-K1zfAs8_m0_3_U5.c.cnf'
c found 'p cnf 126976 296954' header
c parsed 296954 clauses in 0.18 seconds process time
c 
c --- [ options ] ------------------------------------------------------------
c 
c   --seed=1                       (different from default '0')
c 
c --- [ solving ] ------------------------------------------------------------
c 
c time measured in process time since initialization
c 
c  seconds  reductions  redundant  irredundant
c         MB    restarts       trail       variables
c          level   conflicts       glue         remaining
c 
c *  0.18 51  0 0   0    0    0  0% 0 296239 76972 61%
c {  0.19 53  0 0   0    0    0  0% 0 296239 76972 61%
c i  0.19 53  1 0   0    1    0  2% 0 296239 76962 61%
c -  0.24 53 31568 1   5  300  268 27% 26 292865 76962 61%
c }  0.28 53 32330 1   5 1001  876 28% 17 292865 76962 61%
c [  0.28 53  0 1   5 1001  876  0% 0 292865 76962 61%
c O  0.29 54 315 1   5 1002  877 15% 14 292865 76962 61%
c -  0.93 70 311 2   5 1181  870 15% 11 292865 76962 61%
c -  5.38 64 206 3   6 2501 1323 22% 9 292865 76962 61%
c ]  7.01 64 156 3   6 3001 1715 22% 9 292865 76962 61%
c {  7.01 64 32330 3   6 3001 1715 47% 17 292865 76962 61%
c F  7.01 64 32233 3   6 3004 1717 47% 17 292865 76962 61%
c i  7.01 64 30504 3   6 3061 1745 44% 17 292865 76960 61%
c i  7.01 64 30304 3   6 3068 1746 44% 17 292865 76958 61%
c i  7.01 64 30191 3   6 3072 1748 44% 16 292865 76948 61%
c i  7.01 64 30163 3   6 3073 1748 44% 16 292865 76834 61%
c s  7.12 73 17410 3  26 3889 2416 26% 15 292828 76834 61%
c v  7.30 74 17410 3  26 3889 2416 26% 15 292443 76834 61%
c w  7.34 74 17410 3  26 3889 2346 26% 15 292443 76834 61%
c t  7.35 74 17410 3  26 3889 2340 26% 15 292433 76834 61%
c 
c  seconds     reductions  redundant   irredundant
c         MB       restarts       trail        variables
c            level    conflicts       glue          remaining
c 
c e  7.72 74 17410 3  26 3889  340 26% 15 270734 45805 36%
c s  7.81 78 17410 3  26 3889  212 26% 15 270450 45805 36%
c e  7.86 78 17410 3  26 3889  212 26% 15 270432 45800 36%
c -  7.97 68 14578 4  39 4263  525 22% 14 270432 45800 36%
c 3  8.07 72 11066 4  85 5000 25765 17% 14 270428 45799 36%
c 3  8.09 72 11066 4  85 5000 26585 17% 14 270428 45799 36%
c d  8.14 72 11066 4  85 5000 26279 17% 14 270420 45774 36%
c 2  8.16 72 11066 4  85 5000 26258 17% 14 270420 45774 36%
c p  8.17 72 11066 4  85 5000 26326 17% 14 270420 45774 36%
c #  8.21 72 8346 4 136 6006 27216 13% 14 270420 45774 36%
c -  8.33 90 7591 5 171 6413 2545  3% 14 270420 45774 36%
c }  8.35 90 6721 5 196 7002 3067  3% 14 270420 45774 36%
c [  8.35 90 156 5 196 7002 3067 36% 9 270420 45774 36%
c - 13.35 90 86 6 197 8990 2267 27% 9 270420 45774 36%
c I 15.90 90 70 6 198 10007 2302 26% 9 270420 45774 36%
c - 20.92 90 52 7 200 11998 1355 25% 9 270420 45774 36%
c s 26.30 90 42 7 201 14138 1374 24% 9 270254 45774 36%
c v 26.59 90 42 7 201 14138 1374 24% 9 269964 45774 36%
c w 26.62 90 42 7 201 14138 1370 24% 9 269964 45774 36%
c t 26.62 90 42 7 201 14138 1370 24% 9 269962 45774 36%
c 
c  seconds  reductions   redundant  irredundant
c         MB    restarts        trail       variables
c          level    conflicts       glue         remaining
c 
c e 26.67 90 42 7 201 14138 1369 24% 9 269893 45707 36%
c s 26.67 90 42 7 201 14138 1360 24% 9 269891 45707 36%
c 3 28.86 90 39 7 201 15000 2779 24% 9 269891 45707 36%
c 3 28.87 90 39 7 201 15000 3405 24% 9 269891 45707 36%
c p 28.92 90 39 7 201 15000 3452 24% 9 269891 45705 36%
c ] 28.93 90 39 7 201 15002 3453 24% 9 269891 45705 36%
c { 28.93 90 6721 7 201 15002 3453  3% 14 269891 45705 36%
c B 28.93 90 6713 7 201 15008 3459  3% 14 269891 45705 36%
c - 28.98 90 6198 8 234 15434 1418  3% 14 269891 45705 36%
c - 29.12 90 3680 9 531 19298 4618  3% 14 269891 45705 36%
c W 29.36 90 3124 9 744 21014 6167  3% 14 269891 45705 36%
c - 29.52 100 2553 10 1101 23591 7227  3% 14 269891 45705 36%
c F 29.77 100 1952 10 1793 28015 11207  3% 15 269891 45705 36%
c - 29.82 100 1922 11 1829 28314 9397  3% 15 269891 45705 36%
c s 29.92 100 1810 11 2053 29511 10275  3% 15 269883 45705 36%
c v 30.08 100 1810 11 2053 29511 10275  3% 15 269882 45705 36%
c w 30.12 100 1810 11 2053 29511 10253  3% 15 269882 45705 36%
c s 30.17 100 1810 11 2053 29511 10211  3% 15 269882 45705 36%
c ^ 30.20 100 1810 11 2053 29511 10211  3% 15 269882 45705 36%
c 3 30.24 100 1768 11 2086 30000 12143  3% 15 269882 45705 36%
c 
c  seconds     reductions      redundant   irredundant
c          MB       restarts          trail        variables
c            level       conflicts        glue          remaining
c 
c 3 30.25 100 1768 11 2086 30000 12575  3% 15 269882 45705 36%
c p 30.29 100 1768 11 2086 30000 12641  3% 15 269882 45705 36%
c } 30.37 100 1690 11 2244 31002 13542  3% 15 269882 45705 36%
c [ 30.37 100 39 11 2244 31002 13542 24% 9 269882 45705 36%
c - 36.43 100 88 12 2245 33466 9345 24% 9 269882 45705 36%
c B 42.67 100 73 12 2247 36017 9428 24% 9 269882 45705 36%
c - 50.11 100 61 13 2249 39048 6389 24% 9 269882 45705 36%
c W 65.31 100 47 13 2251 45019 6577 23% 8 269882 45705 36%
c - 65.44 100 47 14 2251 45058 4349 23% 8 269882 45705 36%
c 3 77.81 100 39 14 2252 50000 4930 23% 8 269882 45705 36%
c p 77.86 100 39 14 2252 50000 5186 23% 8 269882 45705 36%
c d 77.88 100 39 14 2252 50000 5182 23% 8 269880 45704 36%
c s 77.92 100 39 14 2252 50008 5006 23% 8 269880 45704 36%
c v 78.21 100 39 14 2252 50008 5006 23% 8 269872 45704 36%
c w 78.25 100 39 14 2252 50008 4996 23% 8 269872 45704 36%
c t 78.26 100 39 14 2252 50008 4996 23% 8 269871 45704 36%
c e 78.44 100 39 14 2252 50008 4991 23% 8 269872 45699 36%
c s 78.44 100 39 14 2252 50008 4978 23% 8 269872 45699 36%
c e 78.48 100 39 14 2252 50008 4976 23% 8 269869 45698 36%
c - 82.17 100 37 15 2252 51498 3834 23% 8 269869 45698 36%
c 
c  seconds   reductions     redundant  irredundant
c          MB     restarts         trail       variables
c           level      conflicts       glue         remaining
c 
c O 90.80 100 34 15 2254 55021 3947 23% 8 269869 45698 36%
c - 99.01 100 31 16 2256 58368 3760 23% 8 269869 45698 36%
c ] 110.32 100 28 16 2259 63002 3908 23% 8 269869 45698 36%
c { 110.32 100 1690 16 2259 63002 3908  3% 15 269869 45698 36%
c - 110.46 100 1513 17 2514 65666 6083  3% 16 269869 45698 36%
c B 110.47 100 1492 17 2555 66024 6405  3% 16 269869 45698 36%
c - 110.87 100 1167 18 3452 73394 11965  3% 16 269869 45698 36%
c 3 111.01 100 1116 18 3743 75000 14489  3% 16 269869 45698 36%
c p 111.06 100 1116 18 3743 75000 14839  3% 16 269869 45698 36%
c s 111.15 100 1097 18 3891 75629 14856  3% 16 269869 45698 36%
c v 111.44 100 1097 18 3891 75629 14856  3% 16 269859 45698 36%
c w 111.52 100 1097 18 3891 75629 14839  3% 16 269859 45698 36%
c t 111.52 100 1097 18 3891 75629 14838  3% 16 269857 45698 36%
c e 111.56 100 1097 18 3891 75629 14806  3% 16 269855 45697 36%
c s 111.58 100 1097 18 3891 75629 14701  3% 16 269854 45697 36%
c W 112.43 100 1031 18 4451 78025 16894  3% 17 269853 45697 36%
c - 112.74 100 949 19 5006 81551 16482  3% 17 269853 45697 36%
c - 113.49 80 800 20 6562 90137 19699  3% 18 269853 45697 36%
c # 113.58 80 788 20 6753 91026 20504  3% 18 269853 45697 36%
c - 114.51 81 692 21 8541 99153 22759  3% 19 269853 45697 36%
c 
c  seconds    reductions       redundant   irredundant
c          MB      restarts           trail        variables
c            level      conflicts         glue          remaining
c 
c 3 115.20 81 639 21 9917 105000 28953  3% 20 269853 45697 36%
c p 115.26 81 639 21 9917 105000 29352  3% 20 269853 45697 36%
c B 115.28 81 639 21 9924 105028 29378  3% 20 269853 45697 36%
c s 115.50 81 628 21 10265 106376 29989  3% 20 269853 45697 36%
c w 115.72 81 628 21 10265 106376 29935  3% 20 269853 45697 36%
c s 115.79 81 628 21 10265 106376 29886  3% 20 269853 45697 36%
c ^ 115.82 81 628 21 10265 106376 29886  3% 20 269853 45697 36%
c - 116.16 81 611 22 10802 108598 25265  3% 20 269853 45697 36%
c - 117.29 81 549 23 12766 118473 27437  3% 21 269853 45697 36%
c W 118.26 81 540 23 13142 120029 28833  3% 21 269853 45697 36%
c } 119.15 81 507 23 14705 127002 35135  3% 22 269853 45697 36%
c [ 119.15 81 28 23 14705 127002 35135 23% 8 269853 45697 36%
c - 123.64 81 35 24 14705 128778 27927 23% 8 269853 45697 36%
c B 141.92 81 34 24 14710 136031 28155 23% 8 269853 45697 36%
c - 150.62 80 32 25 14712 139512 19273 23% 8 269853 45697 36%
c 3 151.86 80 32 25 14712 140000 20486 23% 8 269853 45697 36%
c p 151.92 80 32 25 14712 140000 21184 23% 8 269853 45697 36%
c s 157.42 80 30 25 14712 142246 20449 23% 8 269848 45697 36%
c v 157.74 80 30 25 14712 142246 20449 23% 8 269836 45697 36%
c w 157.86 80 30 25 14712 142246 20407 23% 8 269836 45697 36%
c 
c  seconds   reductions        redundant  irredundant
c          MB      restarts           trail       variables
c           level       conflicts         glue         remaining
c 
c t 157.87 80 30 25 14712 142246 20405 23% 8 269833 45697 36%
c e 158.12 80 30 25 14712 142246 14941 23% 8 280938 40141 32%
c s 158.20 80 30 25 14712 142246 14885 23% 8 280933 40141 32%
c i 160.97 80 30 25 14713 143386 14925 22% 8 280933 40139 32%
c - 177.63 82 26 26 14714 150674 9525 22% 8 280843 40139 32%
c W 184.21 82 26 26 14714 153033 9603 22% 8 280843 40139 32%
c i 190.31 82 25 26 14714 155674 9686 22% 7 280843 40119 32%
c i 191.34 82 24 26 14714 156122 9704 22% 7 280843 40089 32%
c i 191.64 82 24 26 14714 156250 9712 22% 7 280843 40065 32%
c i 191.78 82 24 26 14714 156314 9718 22% 7 280843 40045 32%
c i 191.86 82 24 26 14714 156346 9723 22% 7 280843 40025 32%
c i 191.89 82 24 26 14714 156362 9727 22% 7 280843 39989 31%
c i 191.91 82 24 26 14714 156370 9730 22% 7 280843 39913 31%
c i 191.92 82 24 26 14714 156374 9732 22% 7 280843 39786 31%
c i 191.92 82 24 26 14714 156376 9733 22% 7 280843 39529 31%
c ] 191.93 82 24 26 14714 156378 9733 22% 7 280843 31161 25%
c 0 191.93 82 24 26 14714 156378 9733 22% 7 280843 31161 25%
c 
c --- [ result ] -------------------------------------------------------------
c 
s UNSATISFIABLE
c 
c --- [ run-time profiling ] -------------------------------------------------
c 
c process time taken by individual solving procedures
c (percentage relative to process time for solving)
c 
c       187.41   97.74% search
c       176.22   91.90% stable
c         7.93    4.13% unstable
c         4.33    2.26% simplify
c         3.26    1.70% walk
c         1.93    1.01% vivify
c         1.15    0.60% elim
c         0.45    0.24% subsume
c         0.34    0.18% ternary
c         0.18    0.09% parse
c         0.04    0.02% probe
c         0.01    0.00% lucky
c   =================================
c       191.75   99.91% solve
c 
c last line shows process time for solving
c (percentage relative to total process time)
c 
c --- [ statistics ] ---------------------------------------------------------
c 
c chronological:             43260        27.66 %  of conflicts
c conflicts:                156378       815.54    per second
c decisions:               3904847     20364.62    per second
c eliminated:                36653        28.87 %  of all variables
c fixed:                     11094         8.74 %  of all variables
c learned:                  148821        95.17 %  per conflict
c learned_lits:           25113732       100.00 %  learned literals
c minimized:                     0         0.00 %  learned literals
c shrunken:               21454699        85.43 %  learned literals
c minishrunken:             572217         2.28 %  learned literals
c otfs:                       7131         4.56 %  of conflict
c propagations:          726509114         3.79 M  per second
c reduced:                   62088        39.70 %  per conflict
c rephased:                     17      9198.71    interval
c restarts:                  14714        10.63    interval
c stabilizing:                   4        45.64 %  of conflicts
c substituted:                  29         0.02 %  of all variables
c subsumed:                  73135         9.61 %  of all clauses
c strengthened:              13156         1.73 %  of all clauses
c ternary:                   34947         1.45 %  of resolved
c trail reuses:                  0         0.00 %  of incremental calls
c vivified:                   2642         0.35 %  of all clauses
c walked:                        5     31275.60    interval
c weakened:                 131273         2.78    average size
c 
c seconds are measured in process time for solving
c 
c --- [ resources ] ----------------------------------------------------------
c 
c total process time since initialization:       191.93    seconds
c total real time since initialization:          191.97    seconds
c maximum resident set size of process:          112.07    MB
c 
c --- [ shutting down ] ------------------------------------------------------
c 
c exit 20
